RT is False
Default write of storage_offers_DA.csv just to have a file (but constraint should be inactive)
Reading model...
...model read.
creating competitive generators file...
...competitive generators recorded.
Loading data...
.. day-ahead data with real-time VRE data read.
Compiling instance...
...instance created.
Creating Offer Mitigation (model will solve as dispatch if TRUE)...
NOTE: storage offers will not be mitigated
...storage offer mitigation file created
Converting model to MPEC...
...converted
NOTE: initial MIP solve with only storage competitive to get feasible solution
Solving...

Welcome to IBM(R) ILOG(R) CPLEX(R) Interactive Optimizer 12.9.0.0
  with Simplex, Mixed Integer & Barrier Optimizers
5725-A06 5725-A29 5724-Y48 5724-Y49 5724-Y54 5724-Y55 5655-Y21
Copyright IBM Corp. 1988, 2019.  All Rights Reserved.

Type 'help' for a list of available commands.
Type 'help' followed by a command name for more
information on commands.

CPLEX> Logfile 'cplex.log' closed.
Logfile 'C:\Users\llavin\Desktop\test826\logs\tmpw5e9vhsc.cplex.log' open.
CPLEX> New value for parallel optimization mode: -1
CPLEX> New value for emphasis for MIP optimization: 1
CPLEX> New value for mixed integer optimality gap tolerance: 0.01
CPLEX> New value for integrality tolerance: 1e-12
CPLEX> New value for deterministic time limit in ticks: 75000
CPLEX> Problem 'C:\Users\llavin\Desktop\test826\logs\tmpjwnbwb97.pyomo.lp' read.
Read time = 0.24 sec. (13.92 ticks)
CPLEX> Problem name         : C:\Users\llavin\Desktop\test826\logs\tmpjwnbwb97.pyomo.lp
Objective sense      : Maximize
Variables            :   53809  [Nneg: 1,  Box: 22004,  Free: 4464,
                                 Binary: 27340]
Objective nonzeros   :    9029
Linear constraints   :  123253  [Less: 41346,  Greater: 59096,  Equal: 22811]
  Nonzeros           :  293217
  RHS nonzeros       :   67491

Variables            : Min LB: -5000.000        Max UB: 1000000.       
Objective nonzeros   : Min   : 0.008333333      Max   : 2500.000       
Linear constraints   :
  Nonzeros           : Min   : 0.008333333      Max   : 1000000.       
  RHS nonzeros       : Min   : 0.008333333      Max   : 1000000.       
CPLEX> CPXPARAM_Parallel                                -1
CPXPARAM_Emphasis_MIP                            1
CPXPARAM_DetTimeLimit                            75000
CPXPARAM_MIP_Tolerances_MIPGap                   0.01
CPXPARAM_MIP_Tolerances_Integrality              9.9999999999999998e-13
Tried aggregator 4 times.
MIP Presolve eliminated 88675 rows and 18978 columns.
MIP Presolve added 3378 rows and 0 columns.
MIP Presolve modified 24849 coefficients.
Aggregator did 13003 substitutions.
Reduced MIP has 24953 rows, 21272 columns, and 71784 nonzeros.
Reduced MIP has 8413 binaries, 0 generals, 0 SOSs, and 0 indicators.
Presolve time = 0.34 sec. (192.65 ticks)
Probing fixed 388 vars, tightened 3899 bounds.
Probing time = 0.06 sec. (19.06 ticks)
Tried aggregator 2 times.
MIP Presolve eliminated 885 rows and 787 columns.
MIP Presolve modified 3033 coefficients.
Aggregator did 26 substitutions.
Reduced MIP has 24042 rows, 20459 columns, and 69139 nonzeros.
Reduced MIP has 8020 binaries, 0 generals, 0 SOSs, and 0 indicators.
Presolve time = 0.11 sec. (89.78 ticks)
Probing fixed 5 vars, tightened 253 bounds.
Probing time = 0.14 sec. (24.30 ticks)
Clique table members: 44486.
MIP emphasis: integer feasibility.
MIP search method: dynamic search.
Parallel mode: opportunistic, using up to 32 threads.
Root relaxation solution time = 0.41 sec. (514.31 ticks)

        Nodes                                         Cuts/
   Node  Left     Objective  IInf  Best Integer    Best Bound    ItCnt     Gap

      0     0     2652.7816    78                   2652.7816     3613         
      0     0     2652.7816    12                    Cuts: 40     3629         
      0     0     2651.5046    13                     Cuts: 3     3632         
      0     0     2651.5046    15                     Cuts: 2     3635         
*     0+    0                         2628.9902     2651.5046             0.86%

Cover cuts applied:  1
Implied bound cuts applied:  1
Flow cuts applied:  21
Gomory fractional cuts applied:  10

Root node processing (before b&c):
  Real time             =    2.42 sec. (1615.02 ticks)
Parallel b&c, 32 threads:
  Real time             =    0.00 sec. (0.00 ticks)
  Sync time (average)   =    0.00 sec.
  Wait time (average)   =    0.00 sec.
                          ------------
Total (root+branch&cut) =    2.42 sec. (1615.02 ticks)

Solution pool: 1 solution saved.

MIP - Integer optimal, tolerance (0.01/1e-06):  Objective =  2.6289902395e+03
Current MIP best bound =  2.6362575955e+03 (gap = 7.26736, 0.28%)
Solution time =    2.44 sec.  Iterations = 3635  Nodes = 0 (1)
Deterministic time = 1615.17 ticks  (662.50 ticks/sec)

CPLEX> Incumbent solution written to file 'C:\Users\llavin\Desktop\test826\logs\tmpeuh6j7fc.cplex.sol'.
CPLEX> NOTE: no warmstart specified for MIP iteration, default behavior is true
NOTE: resolving with all competitive generators using storage-only solution to warmstart
Solving...

Welcome to IBM(R) ILOG(R) CPLEX(R) Interactive Optimizer 12.9.0.0
  with Simplex, Mixed Integer & Barrier Optimizers
5725-A06 5725-A29 5724-Y48 5724-Y49 5724-Y54 5724-Y55 5655-Y21
Copyright IBM Corp. 1988, 2019.  All Rights Reserved.

Type 'help' for a list of available commands.
Type 'help' followed by a command name for more
information on commands.

CPLEX> Logfile 'cplex.log' closed.
Logfile 'C:\Users\llavin\Desktop\test826\logs\tmp3pk8y39w.cplex.log' open.
CPLEX> New value for parallel optimization mode: -1
CPLEX> New value for emphasis for MIP optimization: 1
CPLEX> New value for mixed integer optimality gap tolerance: 0.01
CPLEX> New value for integrality tolerance: 1e-12
CPLEX> New value for deterministic time limit in ticks: 75000
CPLEX> Problem 'C:\Users\llavin\Desktop\test826\logs\tmpwts5fu4y.pyomo.lp' read.
Read time = 0.23 sec. (13.94 ticks)
CPLEX> MIP start file 'C:\Users\llavin\Desktop\test826\logs\tmpc286n5pv.cplex.mst' read.
CPLEX> Problem name         : C:\Users\llavin\Desktop\test826\logs\tmpwts5fu4y.pyomo.lp
Objective sense      : Maximize
Variables            :   54529  [Nneg: 1,  Box: 22724,  Free: 4464,
                                 Binary: 27340]
Objective nonzeros   :    9749
Linear constraints   :  123253  [Less: 41346,  Greater: 59096,  Equal: 22811]
  Nonzeros           :  293217
  RHS nonzeros       :   67491

Variables            : Min LB: -5000.000        Max UB: 1000000.       
Objective nonzeros   : Min   : 0.008333333      Max   : 2500.000       
Linear constraints   :
  Nonzeros           : Min   : 0.008333333      Max   : 1000000.       
  RHS nonzeros       : Min   : 0.008333333      Max   : 1000000.       
CPLEX> CPXPARAM_Parallel                                -1
CPXPARAM_Emphasis_MIP                            1
CPXPARAM_DetTimeLimit                            75000
CPXPARAM_MIP_Tolerances_MIPGap                   0.01
CPXPARAM_MIP_Tolerances_Integrality              9.9999999999999998e-13
Warning:  No solution found from 1 MIP starts.
Retaining values of one MIP start for possible repair.
Tried aggregator 4 times.
MIP Presolve eliminated 88675 rows and 19698 columns.
MIP Presolve added 3378 rows and 0 columns.
MIP Presolve modified 24849 coefficients.
Aggregator did 13003 substitutions.
Reduced MIP has 24953 rows, 21272 columns, and 71784 nonzeros.
Reduced MIP has 8413 binaries, 0 generals, 0 SOSs, and 0 indicators.
Presolve time = 0.34 sec. (193.06 ticks)
Probing fixed 388 vars, tightened 3899 bounds.
Probing time = 0.06 sec. (19.06 ticks)
Tried aggregator 2 times.
MIP Presolve eliminated 885 rows and 787 columns.
MIP Presolve modified 3033 coefficients.
Aggregator did 26 substitutions.
Reduced MIP has 24042 rows, 20459 columns, and 69139 nonzeros.
Reduced MIP has 8020 binaries, 0 generals, 0 SOSs, and 0 indicators.
Presolve time = 0.11 sec. (89.78 ticks)
Probing fixed 5 vars, tightened 253 bounds.
Probing time = 0.16 sec. (24.30 ticks)
Clique table members: 44486.
MIP emphasis: integer feasibility.
MIP search method: dynamic search.
Parallel mode: opportunistic, using up to 32 threads.
Root relaxation solution time = 0.42 sec. (514.31 ticks)

        Nodes                                         Cuts/
   Node  Left     Objective  IInf  Best Integer    Best Bound    ItCnt     Gap

      0     0     2652.7816    78                   2652.7816     3613         
*     0+    0                         2091.4307     2652.7816            26.84%
      0     0     2652.7816    12     2091.4307      Cuts: 40     3629   26.84%
      0     0     2651.5046    12     2091.4307       Cuts: 8     3631   26.78%
      0     0     2650.6463    13     2091.4307   Flowcuts: 1     3632   26.74%
Repair heuristic found nothing.

Repeating presolve.
Tried aggregator 2 times.
MIP Presolve eliminated 10040 rows and 7662 columns.
MIP Presolve modified 15802 coefficients.
Aggregator did 104 substitutions.
Reduced MIP has 13898 rows, 12691 columns, and 42134 nonzeros.
Reduced MIP has 4764 binaries, 0 generals, 0 SOSs, and 0 indicators.
Presolve time = 0.13 sec. (79.22 ticks)
Probing fixed 417 vars, tightened 21702 bounds.
Probing time = 0.16 sec. (71.58 ticks)
Cover probing fixed 46 vars, tightened 1326 bounds.
Tried aggregator 4 times.
MIP Presolve eliminated 5252 rows and 4990 columns.
MIP Presolve modified 3213 coefficients.
Aggregator did 37 substitutions.
Reduced MIP has 8609 rows, 7664 columns, and 27942 nonzeros.
Reduced MIP has 2823 binaries, 0 generals, 0 SOSs, and 0 indicators.
Presolve time = 0.05 sec. (33.21 ticks)
Probing fixed 30 vars, tightened 3964 bounds.
Probing time = 0.05 sec. (18.85 ticks)
Cover probing fixed 2 vars, tightened 170 bounds.
Tried aggregator 2 times.
MIP Presolve eliminated 100 rows and 78 columns.
MIP Presolve modified 1965 coefficients.
Aggregator did 4 substitutions.
Reduced MIP has 8505 rows, 7582 columns, and 27679 nonzeros.
Reduced MIP has 2787 binaries, 0 generals, 0 SOSs, and 0 indicators.
Presolve time = 0.05 sec. (24.08 ticks)
Represolve time = 0.53 sec. (257.26 ticks)
Probing fixed 5 vars, tightened 2463 bounds.
Probing time = 0.05 sec. (11.40 ticks)
Cover probing fixed 6 vars, tightened 160 bounds.
Clique table members: 3423.
MIP emphasis: integer feasibility.
MIP search method: dynamic search.
Parallel mode: opportunistic, using up to 32 threads.
Root relaxation solution time = 0.14 sec. (167.33 ticks)

        Nodes                                         Cuts/
   Node  Left     Objective  IInf  Best Integer    Best Bound    ItCnt     Gap

*     0+    0                         2091.4307     2650.6463            26.74%
      0     0     2650.6463    42     2091.4307     2650.6463     5780   26.74%
      0     0     2646.1191    11     2091.4307       Cuts: 3     5793   26.52%
      0     0     2646.0812    12     2091.4307       Cuts: 8     5799   26.52%
*     0+    0                         2595.5534     2646.0812             1.95%
*     0+    0                         2628.9902     2646.0812             0.65%
Repair heuristic succeeded.
*     0+    0                         2628.9902     2646.0812             0.65%
      0     0        cutoff           2628.9902     2628.9902     5799    0.00%
Elapsed time = 4.28 sec. (2595.44 ticks, tree = 0.01 MB, solutions = 4)

Implied bound cuts applied:  1
Flow cuts applied:  6
Lift and project cuts applied:  2
Gomory fractional cuts applied:  4

Root node processing (before b&c):
  Real time             =    4.30 sec. (2598.14 ticks)
Parallel b&c, 32 threads:
  Real time             =    0.00 sec. (0.00 ticks)
  Sync time (average)   =    0.00 sec.
  Wait time (average)   =    0.00 sec.
                          ------------
Total (root+branch&cut) =    4.30 sec. (2598.14 ticks)

Solution pool: 4 solutions saved.

MIP - Integer optimal solution:  Objective =  2.6289902395e+03
Solution time =    4.33 sec.  Iterations = 5799  Nodes = 0
Deterministic time = 2598.30 ticks  (600.35 ticks/sec)

CPLEX> Incumbent solution written to file 'C:\Users\llavin\Desktop\test826\logs\tmpr26arepb.cplex.sol'.
CPLEX> Exporting results... 
